w = 33;

n = 23;

r2 = array1d(1..2, [3, 3]);

r3 = array1d(1..2, [3, 4]);

r4 = array1d(1..2, [3, 5]);

r5 = array1d(1..2, [3, 6]);

r6 = array1d(1..2, [3, 7]);

r7 = array1d(1..2, [3, 8]);

r8 = array1d(1..2, [3, 9]);

r9 = array1d(1..2, [3, 10]);

r10 = array1d(1..2, [3, 13]);

r11 = array1d(1..2, [3, 14]);

r12 = array1d(1..2, [3, 15]);

r13 = array1d(1..2, [3, 17]);

r14 = array1d(1..2, [3, 24]);

r15 = array1d(1..2, [3, 30]);

r16 = array1d(1..2, [3, 33]);

r17 = array1d(1..2, [4, 3]);

r18 = array1d(1..2, [4, 4]);

r19 = array1d(1..2, [4, 6]);

r20 = array1d(1..2, [4, 10]);

r21 = array1d(1..2, [4, 12]);

r22 = array1d(1..2, [4, 14]);

r23 = array1d(1..2, [4, 17]);

r24 = array1d(1..2, [7, 33]);

